p cnf 24 43
-10 -11 0
-10 -12 0
-11 -12 0
10 11 12 0
7 -11 0
8 -12 0
-13 -14 0
-13 -15 0
-13 -16 0
-14 -15 0
-14 -16 0
-15 -16 0
13 14 15 16 0
-17 -18 0
-17 -19 0
-18 -19 0
17 18 19 0
-20 -21 0
-20 -22 0
-20 -23 0
-20 -24 0
-21 -22 0
-21 -23 0
-21 -24 0
-22 -23 0
-22 -24 0
-23 -24 0
20 21 22 23 24 0
-1 -14 -17 0
-1 -15 -18 0
-1 -16 -19 0
-2 -15 0
-3 -13 0
-4 -13 -20 0
-4 -14 -21 0
-4 -15 -22 0
-4 -16 -23 0
-5 -18 0
-6 -17 -21 0
-6 -18 -22 0
-6 -19 -23 0
-8 -24 0
-9 -20 0
